c @top --> 17
c p0@v2 --> 16
c p0@v1 --> 15
c p0@v0 --> 14
c p3@v1 --> 5
c p4@v0 --> 1
c p1@v3 --> 13
c p4@v1 --> 2
c p4@v2 --> 3
c p3@v2 --> 6
c p2@v0 --> 7
c p2@v1 --> 8
c p3@v0 --> 4
c p1@v0 --> 10
c p1@v1 --> 11
c p2@v2 --> 9
c p1@v2 --> 12
p cnf 17 136
-1 -13 -8 -6 -14 0
-16 -2 -6 -7 -12 0
-16 -1 -4 -8 -10 0
-1 -4 -9 -14 -11 0
-16 -1 -4 -8 -12 0
-16 -1 -9 -13 -5 0
-2 -6 -7 -12 -14 0
-5 -7 -12 -3 -14 0
-16 -2 -4 -13 -7 0
-1 -15 -13 -6 -7 0
-1 -13 -5 -7 -14 0
-16 -1 -13 -8 -6 0
-9 -15 -6 -10 -3 0
-16 -2 -4 -7 -12 0
-1 -4 -9 -15 -10 0
-16 -2 -13 -6 -7 0
-1 -4 -9 -15 -12 0
-16 -1 -4 -9 -11 0
-1 -15 -6 -10 -7 0
-1 -4 -9 -15 -13 0
-4 -9 -3 -14 -11 0
-1 -4 -13 -8 -14 0
-16 -13 -8 -6 -3 0
-1 -4 -15 -7 -12 0
-16 -4 -8 -12 -3 0
-1 -4 -7 -14 -11 0
-16 -13 -5 -7 -3 0
-16 -9 -5 -10 -3 0
-1 -9 -15 -6 -10 0
-1 -9 -5 -12 -14 0
-1 -9 -15 -6 -12 0
-2 -9 -13 -6 -14 0
-16 -1 -8 -6 -12 0
-4 -15 -13 -7 -3 0
-16 -1 -8 -6 -10 0
-16 -2 -4 -9 -10 0
-15 -13 -6 -7 -3 0
-16 -2 -4 -9 -12 0
-16 -2 -4 -9 -13 0
-16 -1 -4 -7 -11 0
-16 -2 -9 -13 -6 0
-16 -1 -5 -7 -12 0
-2 -4 -9 -10 -14 0
-16 -1 -6 -7 -11 0
-16 -1 -13 -5 -7 0
-15 -6 -10 -7 -3 0
-6 -7 -3 -14 -11 0
-1 -4 -15 -10 -7 0
-9 -13 -5 -3 -14 0
-1 -9 -13 -5 -14 0
-16 -1 -5 -10 -7 0
-16 -4 -8 -10 -3 0
-16 -9 -6 -3 -11 0
-16 -8 -6 -10 -3 0
-4 -9 -15 -13 -3 0
-1 -9 -5 -10 -14 0
-16 -1 -4 -13 -8 0
-16 -4 -13 -8 -3 0
-4 -15 -7 -12 -3 0
-1 -8 -6 -10 -14 0
-2 -4 -9 -12 -14 0
-5 -10 -7 -3 -14 0
-2 -4 -10 -7 -14 0
-1 -5 -7 -12 -14 0
-4 -13 -8 -3 -14 0
-16 -4 -9 -3 -11 0
-16 -4 -7 -3 -11 0
-4 -15 -10 -7 -3 0
-4 -9 -15 -12 -3 0
-16 -2 -4 -10 -7 0
-1 -5 -10 -7 -14 0
-2 -4 -7 -12 -14 0
-4 -7 -3 -14 -11 0
-2 -4 -13 -7 -14 0
-1 -4 -8 -12 -14 0
-16 -1 -9 -5 -12 0
-16 -6 -7 -3 -11 0
-16 -1 -9 -5 -10 0
-2 -9 -6 -12 -14 0
-16 -9 -5 -12 -3 0
-16 -2 -6 -10 -7 0
-16 -8 -6 -12 -3 0
-16 -5 -7 -12 -3 0
-1 -15 -6 -7 -12 0
-9 -5 -12 -3 -14 0
-1 -9 -15 -13 -6 0
-4 -8 -10 -3 -14 0
-1 -8 -6 -12 -14 0
-13 -5 -7 -3 -14 0
-16 -2 -9 -6 -12 0
-1 -4 -15 -13 -7 0
-9 -15 -6 -12 -3 0
-16 -2 -9 -6 -10 0
-16 -1 -9 -6 -11 0
-4 -9 -15 -10 -3 0
-13 -8 -6 -3 -14 0
-4 -8 -12 -3 -14 0
-8 -6 -10 -3 -14 0
-9 -15 -13 -6 -3 0
-15 -6 -7 -12 -3 0
-2 -6 -10 -7 -14 0
-16 -5 -10 -7 -3 0
-9 -6 -3 -14 -11 0
-1 -9 -6 -14 -11 0
-8 -6 -12 -3 -14 0
-2 -13 -6 -7 -14 0
-16 -9 -13 -5 -3 0
-1 -6 -7 -14 -11 0
-1 -4 -8 -10 -14 0
-2 -4 -9 -13 -14 0
-9 -5 -10 -3 -14 0
-2 -9 -6 -10 -14 0
1 2 3 0
-1 -2 0
-1 -3 0
-2 -3 0
4 5 6 0
-4 -5 0
-4 -6 0
-5 -6 0
7 8 9 0
-7 -8 0
-7 -9 0
-8 -9 0
10 11 12 13 0
-10 -11 0
-10 -12 0
-10 -13 0
-11 -12 0
-11 -13 0
-12 -13 0
14 15 16 0
-14 -15 0
-14 -16 0
-15 -16 0
17 -17 0
